
 102   30
  10   10   10   10   10   10   10   10   10   10   10   10   10   10   10   10   10   10   10   10   10   10   10   10   10   10   10   10   10   10

   0   0   0   0   0   0   0   0   0   0   0   0   0   0   0   0   0   0   0   0   0   0   0   0   0   0   0   0   0   0   0  22 2 3 4 5 6 8 10 11 12 13 14 15 17 18 19 20 21 22 25 28 35 39 
   8   0   0   0   0   0   0   0   0   0   0   0   3   0   0   0   0   0   0   0   0   0   0   0   0   0   1   1   0   0   0  12 101 100 72 61 50 46 43 32 24 23 9 7 
   7   3   0   0   0   0   0   0   0   0   0   0   0   0   0   1   0   0   0   0   0   0   0   0   2   0   0   0   0   0   0  13 72 70 69 57 55 53 48 47 37 31 26 23 16 
   1   0   0   0   0   0   1   0   0   0   0   0   0   0   6   0   0   0   0   1   0   0   0   1   0   0   0   0   0   0   0  16 100 97 96 72 71 70 69 61 55 54 52 50 48 45 43 29 
   2   0   0   0   0   3   0   0   0   0   0   0   0   1   0   8   0   0   0   0   0   0   0   0   0   0   0   0   0   3   0  15 101 92 69 68 67 61 60 59 57 52 50 47 42 36 30 
   4   0   0   0   0   4   0   0   0   0   0   2   0   9   4   0   1   0   0   0   1   0   1  10   0   0   0   0   0   0   0  16 101 100 99 96 95 94 69 61 60 56 55 51 46 43 36 33 
   3   3   0   0   0   6   0   0   1   0   0   0   0   0   0   7   8   1   1  10   6   0   0   0   0   1   0   0   0   0   0  17 99 98 96 67 66 65 63 59 57 56 55 52 51 45 44 38 36 
   9   0   0   0   0   0   0   0   0   0   0   0   0   0   0   0   0   0   0   8   0   4   0   0   0   0   0   0   0   0   0  12 100 96 76 72 71 70 67 59 49 46 36 27 
   8   0   0   0   0   0   7   0   0   0   0   0   5   5   5   6   0   0   0   0   0   0   0   0   0   0   0   0   1   0   0  15 98 96 92 70 69 66 60 59 58 52 51 48 44 37 36 
   2   0   0   0   0   0   0   0   0   0   3   0   3   0   0   0   0   0   0   0   0   0   0   0   0   0   0   0   0   5   0  12 99 96 76 75 61 59 56 52 51 45 42 34 
   8   0   0   0   0  10   0   0   0   1   5   0   0   0   0   0   0   0   0   4   0   0   0   0   0   0   0   0   0   0   0  18 101 99 96 94 92 73 71 70 69 68 67 63 60 59 56 55 42 36 
   1   0   0   0   0   0   0   0   0   0   0   0   3   0   0   6   0   0   5   0   0   0   0   0   0   0   0   0   0   0   0  12 96 95 92 73 72 61 56 52 50 48 36 33 
   6   0   0   0   0   0   0   0   0   0   0   0   0   0   0   0   0   0   0   0  10   0   0   0   0   0   0   0   6   0   0  12 101 92 76 75 69 68 65 61 59 47 42 40 
   8   0   0   0   2   0   0   0   0   0   0   0  10   0   0   8   0   5   0   0   0   0   0   0   0   0   5   0   0   0   0  12 99 96 94 74 71 70 65 63 60 56 41 38 
   4   0   0   1   0   0   0   0   5   0   0   0   0   0   0   0   0   0   0   7   0   0   0   0   9   0   0   0   0   0   0  11 95 94 75 71 69 68 61 57 56 38 33 
   8   4   1   0   0   5   0   0   0   0   0   5   0   0   0   0   0   0   0   0   7   0   0   0   0   0   3   4   0   0   0  11 100 96 95 94 93 75 61 54 52 43 33 
   7   0   6   0   0   0   0   0   0   0   0   0   0   0   0   0   0   0   6   5   0   0   0   0   0   0   0   0   0  10   0  13 101 94 92 73 67 64 63 61 60 59 55 40 36 
   8   0   0   0   0   0   0   0  10   0   0   0   0   0   0   0   0   0   0   0   0   0   0   0   0   0   0   0   0   0   1  13 101 97 89 75 74 70 69 64 62 59 57 53 46 
   4   0   0   0   0   0   0   1   0   0   3   0   0   0   0   0   5   0   0   0   0   0   0   0   0   0   7   0   0   0   5  10 101 100 95 94 93 75 69 61 46 33 
   1   3   0   0   0   0   6   0   0   0   0   0   0   0   0   4   0   0   0   0   0   0   3   0   0   0   0   5   0   0   0  15 100 97 96 95 91 90 88 87 74 69 65 63 55 54 43 
   7   6   0   0   0   0   0   0   0   0   0   0   0   0   0   0   0   0   8   0   0   0   0   0   0   8   0   6   0   0   0  14 101 98 96 94 92 86 73 67 65 64 63 59 52 36 
   5   0   0   0   0   0   0   0   0   0   0   0   0   0   0   0   0   0   0   0   0   0   0   0   0   8   0   0   0   0   0  13 100 99 98 95 94 90 89 83 75 68 67 60 38 
   4   9   6   0   0  10   7  10   8   0   0   5   7   0   5   8   6   0   0   0   0   0   0   0   0   0   0   2   0   0   0  11 99 96 90 89 75 67 65 63 59 45 44 
   1   0   0   0   0   4   7   0   0   0   0   0   0   0   0   0   0   0   9   0   0   0   0   0   0   0   0   0   3   0   0  20 99 98 97 96 95 93 92 91 89 88 87 83 80 76 75 73 68 65 62 60 
   4   0   0   0   0   0   0   0   0   0   0   0   0   0   0   0   4   0   0   0   0   0   0   0   0   0   0  10   0   0   0  17 99 98 97 95 94 93 92 89 87 83 75 73 69 68 65 62 57 
   5   0   0   8   0   0   0   0   0   0   0   0   0   0   0   0   0   0   0   0   0   0   0   0   0   0   0   8   0   9   0  14 101 99 98 97 96 91 90 88 85 73 65 56 54 51 
   7   0   0   0   0   0   0   0   0   0   0   0   0   0   4   0   8   0   0   0   6   0   0   0   0   0   0   0   0   0   5  13 99 97 92 91 89 88 79 75 74 65 63 62 44 
   2   0   7   0   0   0   0   0   0   0   0   0   0   0   0   0   0   0   0   0   0   0   0   8   0   0   0   8   0   0   0  13 99 94 93 92 89 88 86 76 73 66 59 57 54 
   9   0   0   0   0   0   0   0   0   8   0   0   0   0   0   0   0   0   0   0   0   0   0   0   0   0   0   0   0   0   6  14 101 99 95 92 90 86 84 76 75 73 63 59 58 51 
  10   0   0   0   0   0   0   0   0   0   0   0   0   8   0   0   0   0   0   0   0   0   7   0   7   0   7   0   0   0   0  11 99 97 96 91 88 86 76 73 65 54 51 
   6   4   0   0   0   0   0   0   0   0   0   0   0   0   0   0   0   0   0   0   0   0   0   7   0   0   0   0   0   0   0  11 96 92 91 90 89 87 74 71 68 64 50 
   8   0   0   0   0   0   8   0   0   5   0   0   0   0   0   0   0   0   0   0   0   0   0   0   0   0   0   5   0   7   0  15 99 97 96 94 90 89 88 86 81 79 75 74 73 65 59 
  10   0   0   0   0   0   0   0   0   0   8   0   7   0   0   0   0   0   3   0   0   0   5   3   0   0  10   0  10   0   0  12 91 90 89 88 86 74 66 65 64 63 62 59 
   2   0   8   0   0   0   0   0   5   8   0   0   0   0   0   0   0   7   0   0   6   5   0   0   4   9   0   0   0   0   0  11 97 95 94 92 88 82 69 67 66 63 55 
   1   0   0   0   0   0   0   7   6   0   0   0   0   0   5   0   0   0   0   0   7   0   0   0   0   0   0   0   0   0   0   9 95 90 85 82 73 72 63 56 55 
   2  10   0   0   0   0   0   0   0   0   0   0   0   0   0   0   0   0   0   0   6   0   0   7   0   0   0   8   0   0   0  10 97 93 91 90 89 88 87 85 83 54 
   5   0   0   5   0   0   5   0   0   0   6   0   0   0   0   0   0   0   0   0   0   0   0   0   0   0   0   0   0   0   0  10 91 88 87 86 83 76 75 68 63 62 
   8   0   0   0   0   0   0   0   4   0   0   0   0   0   0   0   0   0   0   0   0   0   0   0   6   0   0   0   0   0   0   8 93 92 88 87 86 76 73 54 
   6   0   0   0   0   0   0   4   0   0   0   0   0   0   0   0   0   0   0   0   0   0   0   0   0   0   0   0   0   0   0  12 96 91 88 87 84 83 82 80 79 73 69 67 
   7  10   0   0   0   0   0   0   0   0   0   0   0   6   0   0   0   0   0   0   4   0   0   0   0   6   0   9   0   5   0  11 99 98 97 96 90 85 83 79 78 74 62 
   5   0   0   0   0   0   0   0   0   7   0   8   0   0   0   0   0   0   0   0   7   0   0   0   0   0   0   0   0   0   0  11 100 95 91 90 89 88 86 85 81 75 66 
   3   6   0   0   0   0   0   5   0   0   2   0   0   0   0   0   0   0   0   0  10   0   0   6   0   0   0   0   0   7   0  10 98 95 90 89 86 83 78 74 66 64 
   7   0   0   0   0   0   0   0   0   0   0   6   0   0   0   0   0   0   0   0   0   0   0   0   4   0   0   0   0   0   0   7 92 89 76 73 67 66 62 
   5   0   0   0   0   0   0   0   0   7   0   5   0   0   0   0   0   0   0   0   0   0   0   0   0   5   0   0   6   0   0  10 95 94 87 85 83 82 81 80 73 64 
   3   0   0   0   4   0   0   0   0   0   0   0   0   0   0   0   0   0   0   0   0   0   0   0   0   4   3   0   0   0   6   9 95 93 91 87 82 81 77 73 60 
   4   0   0   0   0   0   0   0   5   5   0   3   0   0   0   0   0   0   0   0   0  10   0   0   0   0   0   0   6   0   0   9 98 92 90 86 85 82 73 68 63 
   7   0   0   0   0   0   0   0   0   0   0   0   0   0   0   9   0   0   7   0   0   0   0   9  10   0   0   0   0   0   0   9 100 96 91 89 85 81 79 73 63 
   6   0   0   0   0   0   0   0   0   0   0   0   5   0   0   0   0   0   0   0   0   0   0   0   0   0   0   8   0   0   9   9 93 89 88 85 83 82 78 75 64 
   7   0   0   0   4   0   0   0   0   0   8   0   0   6   0   0   0   0   0   0   0   0   0   0   0   0   0   0   0   0   0   7 90 87 83 79 77 73 62 
   5   0   0   0   0   7   0   0   0   0   0   0   0   3   0   8   0   0   0   0   0   0   0   0   0   0   0   0   0   0   0   8 98 94 93 86 82 81 78 77 
   6   0   0   0   0   0   0   0   0   0   0   0   0   0   0   0   0   0   0   0   0   0   0   0   0   0   0   4   0   0   0   7 89 87 83 80 79 78 74 
  10   0   0   0   0   0   0   0   0   0   0   7   0   0   8   0   0   0   0   0   0   4   7   7   7   0   0   0   0   0   0   6 90 87 80 79 77 62 
   6   0   0   0   0   0   0   0   0   0   0   0   0   9   0   0   9   0   0   0   0   0   8   0   0   0   0   0   0   0   0   7 100 96 94 88 80 78 77 
   2   0   0   0   0   0   0   0   0   0   0   0   0   0   0   5   0  10   0   0   0   0   0   0   0   0   0   0   0   0   7   5 84 80 79 77 62 
   5   0   0   0   0   0   0   0   0   0   0   0   4   0   0   0   0   0   7   0   0   0   0   0   0   0   0   0   0   0   0   5 84 83 81 79 77 
   5   0   0   0   7   0   0   0  10   0   0   0   0   0   0   0   0   0   0   0   0   0   0   0   0   0   0   0   0   0   0   3 86 78 64 
   8   0   0   0   0   0   0   0   0   0   0   0   7   0   0   0   4   0   9   0   0   0   0   0   0   0   9   0   0   0   0   4 91 90 80 78 
   9   0   0   0   0   0   0   0   0   0   0   0   0   0   7   0   0   5   0   0   4   0   0   0   0   8   0   0   0   8   0   4 82 81 79 77 
   9   0   0   0   0   7   0   0   0   0   0   0   0   8   6   0   0   0   0   4   0   0  10   0   0   0   0   0   0   0   0   3 87 83 80 
  10   5   0   0   7   0   0   0   0   0   0   5   8   0   0   0   0   0   0   0   0   0   0   0   0   0   0   0   0   0   0   3 86 85 79 
   8   0   0   0   9   0   0   0   3   0   0   0   0   8   0   0   0   0   0   0   0   0   0   0   0   0   0   0   0   0   0   3 88 84 83 
   9   0   0   0   0   0   0   0   5   0   0   0   0   0   0   0   0   0   0   0   0   0   0   0   0   0   0   8   0   0   0   2 82 81 
   8   0   0   0   0   0   0   0   0   9   0   0   0   0   0   0   0   0   0   0   0   0   0   0   0   3   0   0   9   0   0   2 80 77 
   1   0   0   9   0   0   0   7   0   0   0   0   9   2   7   0   0   0   9   0   0   0   0   0   0   9   0   0   6   0   0   2 84 77 
   3  10   0   0   0   5   0   0   0   0   0   0   0   0   0   0   0   0   0   0   0   0   0   0   0   0   0   0   0   0   0   2 84 78 
   6   0   0   0  10   0   0   0   0   0   0   0   0   0   2   0   0   0   6   5   0   0   0   7   0   0   0   0   0   0   0   2 80 79 
   5   0   0   3   0   0   0   0   0   0   0  10   5   0   0   0   7   0   0   0   0   0   0   0   0   8   0   0   0   0   0   2 78 77 
   9   0   0   0   0   0   0   8   8   0  10   0   0   0   0   8   0   0   0   0   0   0   5   0   0   0   0   0   9   0   0   2 79 78 
   3   0   0   0   0   0   0   0   0   0   7   0   0   0   0   0   0  10   0   0   0   0   5   0   0   0   0   0   5   5   0   2 86 85 
   6   0   0   0   0   0   5   0   6   0   0   0   0   0   0   5   0   0   0   0   0   0   0   0   7   0   6   0   0   0   0   2 93 77 
   1   0   0   0   0   0   0   0   0   0   0   0   0   6   8   7   0   0   0   0   0   8   6   0   0   0   0   0   0   0   0   2 88 83 
   2   0   0   0   0   0   8   0   0   0   6   0   0   0   0   0   0   0   0   7   0   0   0   0   0   0   5   0   0   0   0   2 88 84 
   5   0   0   0   0   0   0   0   0   0  10   0   0   0   0   0   0   0   0   0   0   0   0   0   0   0   0   0   0   0   0   1 78 
   7   0   0   0   0   0   0   0   0   0   0   0   0   0   0   0   0   0   8   0   0   0   0   0   0   0   0   0   0   0   0   1 77 
   4   0   0   0   7   0   0   0   0   0   0   5   0   0   0   0   8   0   0   0   5   0   0   0   0   0   0   0   0   0   0   1 77 
   5   0   0   0   0   0   0   0   0   0   0   0   0   0   0   0  10   0   0   0   0   0   0   0   0   0   0   0   0   0   0   1 85 
   6   0   0  10   0   0   0   0   0   5   0   0   0   0   0   0   0   0   0   0   0   0   0   0   0   0   0   0   0   0   0   1 102
   3   0   0   6   0   8   0   0   0   0   0   0   0   0   0   0   7   0   0   0   0   0   0   0   0   0   0  10   0   0   0   1 102
   3   0   0   0   0   0   7   0   0   0   0   0   0   4   0   0   0   0   0   9   0   0   0   0   0   0   0   0   0   4   0   1 102
   5   7   0   0   6   0   0   0   0   0   5   0   0   0   0   0   0   0   0   0   0   0   0   0   0   0   5   0   0   0   0   1 102
   5   0   0   0   0   0   0   0   0   0   5   9   0   0   0   0   0   0   0   0   0   5   0   0   0   0   0   0   0   0  10   1 102
   2   6   0   0   0   0   0   0   8   0   0   0   0   5   0   7   0   0   0   0   0   0   0   3   0   0   0   7   0   0   0   1 102
   4   0   0   0   0   0   0   0   0   0   0   8   0   0   0   0   0   0   0   0   0   0   0   0   0   0   0   2   8   0   0   1 102
  10   0   0   0   0   0   0   0   7   0   0   0   0   0   0   0   0   0   0   0   0   0   0   0   0   0   0   0   6   0   1   1 102
   5   0   0   0   0   0   0   0   0   0   0   0   8   0   0   0   6   0   0   0   0   0   0   0   0   0   0   0   2   0   0   1 102
   4   0   0   0   0   0   0   0   6   0   0   0   0   0   4   0   0   0   4   0   0   0   0   0   4   0   0   0   0   0   0   1 102
   9   0   8   0   0   0   0   0   0   0   0   0   0   0   0   0   0   0   0   0   5   0   0   0   0   0   0   0   0   0   0   1 102
   5   0   0   0   0   0   0   0   7   0   0   0   0   0   0   0   0   0   0   0   0   0   0   0   0   0   0   0   0   0   0   1 102
   2   0   0   0   0   2   0   0   0   0   0   0   0   8   0   0   4   0   0   0   0   0   0   0   0   0  10   0   0   7   0   1 102
  10   0   0   0   0   0   0   0   0   0   0   0   0   0   0   3   0   0   2   0   0   0   0   0   0   0   6   0   0   3   7   1 102
  10   0   6   0   8   0   0   0   0   0   0   0   0   0  10   0   0   0   5   4   0   0   0   0   0   3   0   4   0   0   0   1 102
   7   4   0   0   0   0   0   0   0   0   0   0   0   0   0   0   0   0   3   0   0   6   9   0   0   0   0   0   0   0   0   1 102
   9   0   0   0   0   0   0   6   0   0   0   0   0   0   0   0   4   0  10   5   0   0   0   0   0   0   0   4   0   0   0   1 102
  10   0   0   0   0   0   0   0   0   0   0   0   0   0   0   0   0   0   0   9   0   0   0   0   0   0   0   6   0   0   0   1 102
   4   0   0   0   0   7   0   0   0   0   0   0   0   7   0   0   0   0   0   0   0   0   0   4   0   0   0   0   0   0  10   1 102
   1   0   0   0   0   0   0   0   4   0   0   0   0   0   0   0   0   0   0   0   0   6   0   0   0   5   5   0   0   0   0   1 102
   7   0   0   0   0   0   0   0   0   0   6   0   0   0   0   4   0   4   0   0   0   0   0   0   0   0   0   0   0   0   0   1 102
   3   0   0   0   0   0   0   0   0   5   0   0   0   0   6   0   0   0   0   0   0   0   0   0   0   0   0   7   0   0   0   1 102
   3   0   0   0   2   0   0   0   0   0   0   0   0   0   9   0   0   0   0   0   0   0   0   0   0   7   8   0   0   5   0   1 102
   6   0   0   0   0   0   0   0   0   0   0   0   0   7   0   0   5   0   0   0   0   0   0   0   0   0   0   0   0   0   0   1 102
   1   0   0   0   0   0   5   0   0   0   0   0   0   0   0   4   0   0   0   0   0   6   0   0   0   0   0   0   7   0   5   1 102
   0   0   0   0   0   0   0   0   0   0   0   0   0   0   0   0   0   0   0   0   0   0   0   0   0   0   0   0   0   0   0   0 
